feasible solution found by trivial heuristic after 0.1 seconds, objective value 2.190118e+07
presolving:
(round 1, fast)       0 del vars, 20 del conss, 0 add conss, 0 chg bounds, 0 chg sides, 0 chg coeffs, 0 upgd conss, 0 impls, 8960 clqs
   (0.3s) running MILP presolver
   (0.3s) MILP presolver found nothing
(round 2, exhaustive) 0 del vars, 20 del conss, 0 add conss, 0 chg bounds, 0 chg sides, 0 chg coeffs, 448 upgd conss, 0 impls, 8960 clqs
(round 3, exhaustive) 0 del vars, 20 del conss, 0 add conss, 0 chg bounds, 0 chg sides, 0 chg coeffs, 9408 upgd conss, 0 impls, 8960 clqs
   (0.6s) probing: 51/8980 (0.6%) - 0 fixings, 0 aggregations, 0 implications, 0 bound changes
   (0.6s) probing aborted: 50/50 successive totally useless probings
   (0.7s) symmetry computation started: requiring (bin +, int -, cont +), (fixed: bin -, int +, cont -)
   (0.7s) no symmetry present
presolving (4 rounds: 4 fast, 3 medium, 3 exhaustive):
 0 deleted vars, 20 deleted constraints, 0 added constraints, 0 tightened bounds, 0 added holes, 0 changed sides, 0 changed coefficients
 0 implications, 8960 cliques
presolved problem has 8980 variables (8980 bin, 0 int, 0 impl, 0 cont) and 9408 constraints
   8960 constraints of type <setppc>
    448 constraints of type <logicor>
transformed objective value is always integral (scale: 1)
Presolving Time: 0.66
transformed 1/1 original solutions to the transformed problem space

 time | node  | left  |LP iter|LP it/n|mem/heur|mdpt |vars |cons |rows |cuts |sepa|confs|strbr|  dualbound   | primalbound  |  gap   | compl. 
t 0.8s|     1 |     0 |     0 |     - | trivial|   0 |8980 |9408 |   0 |   0 |  0 |   0 |   0 | 0.000000e+00 | 7.350647e+06 |    Inf | unknown
p 1.0s|     1 |     0 |     0 |     - |  clique|   0 |8980 |9408 |9408 |   0 |  0 |   0 |   0 | 0.000000e+00 | 1.093883e+06 |    Inf | unknown
  2.1s|     1 |     0 |  1145 |     - |    89M |   0 |8980 |9408 |9408 |   0 |  0 |   0 |   0 | 7.200810e+05 | 1.093883e+06 |  51.91%| unknown
r 2.2s|     1 |     0 |  1145 |     - |rounding|   0 |8980 |9408 |9408 |   0 |  0 |   0 |   0 | 7.200810e+05 | 7.313910e+05 |   1.57%| unknown
  3.3s|     1 |     0 |  1170 |     - |    92M |   0 |8980 |9408 |9415 |   7 |  1 |   0 |   0 | 7.201659e+05 | 7.313910e+05 |   1.56%| unknown
  6.0s|     1 |     0 |  1192 |     - |    94M |   0 |8980 |9408 |9417 |   9 |  2 |   0 |   0 | 7.202347e+05 | 7.313910e+05 |   1.55%| unknown
  8.8s|     1 |     0 |  1202 |     - |    95M |   0 |8980 |9408 |9419 |  11 |  3 |   0 |   0 | 7.202567e+05 | 7.313910e+05 |   1.55%| unknown
 12.1s|     1 |     0 |  1235 |     - |    99M |   0 |8980 |9408 |9426 |  18 |  4 |   0 |   0 | 7.203177e+05 | 7.313910e+05 |   1.54%| unknown
 14.7s|     1 |     0 |  1259 |     - |   100M |   0 |8980 |9408 |9431 |  23 |  5 |   0 |   0 | 7.203580e+05 | 7.313910e+05 |   1.53%| unknown
 16.5s|     1 |     0 |  1271 |     - |   101M |   0 |8980 |9408 |9435 |  27 |  6 |   0 |   0 | 7.203662e+05 | 7.313910e+05 |   1.53%| unknown
 20.6s|     1 |     0 |  1290 |     - |   105M |   0 |8980 |9408 |9439 |  31 |  7 |   0 |   0 | 7.204223e+05 | 7.313910e+05 |   1.52%| unknown
 25.8s|     1 |     0 |  1305 |     - |   111M |   0 |8980 |9408 |9443 |  35 |  8 |   0 |   0 | 7.204387e+05 | 7.313910e+05 |   1.52%| unknown
 30.0s|     1 |     0 |  1354 |     - |   118M |   0 |8980 |9408 |9447 |  39 |  9 |   0 |   0 | 7.204850e+05 | 7.313910e+05 |   1.51%| unknown
 36.7s|     1 |     0 |  1382 |     - |   119M |   0 |8980 |9408 |9450 |  42 | 10 |   0 |   0 | 7.205237e+05 | 7.313910e+05 |   1.51%| unknown
 37.0s|     1 |     0 |  1415 |     - |   121M |   0 |8980 |9408 |9455 |  47 | 11 |   0 |   0 | 7.205428e+05 | 7.313910e+05 |   1.51%| unknown
 time | node  | left  |LP iter|LP it/n|mem/heur|mdpt |vars |cons |rows |cuts |sepa|confs|strbr|  dualbound   | primalbound  |  gap   | compl. 
d37.2s|     1 |     0 |  1650 |     - |farkasdi|   0 |8980 |9408 |9455 |   0 | 11 |   0 |   0 | 7.205428e+05 | 7.215410e+05 |   0.14%| unknown
 37.6s|     1 |     0 |  2027 |     - |   122M |   0 |8980 |9408 |9455 |  47 | 11 |   0 |   0 | 7.205428e+05 | 7.215410e+05 |   0.14%| unknown
 37.7s|     1 |     0 |  2027 |     - |   122M |   0 |8980 |9408 |5782 |  47 | 11 |   0 |   0 | 7.205428e+05 | 7.215410e+05 |   0.14%| unknown
 37.9s|     1 |     0 |  2049 |     - |   123M |   0 |8980 |5735 |5784 |  49 | 12 |   0 |   0 | 7.205639e+05 | 7.215410e+05 |   0.14%| unknown
 38.0s|     1 |     0 |  2049 |     - |   123M |   0 |8980 |5735 |5702 |  49 | 12 |   0 |   0 | 7.205639e+05 | 7.215410e+05 |   0.14%| unknown
(run 1, node 1) restarting after 3755 global fixings of integer variables

(restart) converted 49 cuts from the global cut pool into linear constraints

presolving:
(round 1, fast)       3755 del vars, 0 del conss, 0 add conss, 0 chg bounds, 0 chg sides, 3755 chg coeffs, 0 upgd conss, 0 impls, 5205 clqs
   (38.1s) running MILP presolver
   (38.1s) MILP presolver found nothing
(round 2, exhaustive) 3755 del vars, 0 del conss, 0 add conss, 0 chg bounds, 0 chg sides, 3755 chg coeffs, 49 upgd conss, 0 impls, 5205 clqs
presolving (3 rounds: 3 fast, 2 medium, 2 exhaustive):
 3755 deleted vars, 0 deleted constraints, 0 added constraints, 0 tightened bounds, 0 added holes, 0 changed sides, 3755 changed coefficients
 0 implications, 5205 cliques
presolved problem has 5225 variables (5225 bin, 0 int, 0 impl, 0 cont) and 5702 constraints
     49 constraints of type <knapsack>
   5205 constraints of type <setppc>
    448 constraints of type <logicor>
transformed objective value is always integral (scale: 1)
Presolving Time: 0.85
transformed 5/8 original solutions to the transformed problem space

 time | node  | left  |LP iter|LP it/n|mem/heur|mdpt |vars |cons |rows |cuts |sepa|confs|strbr|  dualbound   | primalbound  |  gap   | compl. 
 39.5s|     1 |     0 |  5982 |     - |   125M |   0 |5225 |5702 |5702 |   0 |  0 |   0 |   0 | 7.205639e+05 | 7.215410e+05 |   0.14%| unknown
 39.5s|     1 |     0 |  5982 |     - |   125M |   0 |5225 |5702 |5700 |   0 |  0 |   0 |   0 | 7.205639e+05 | 7.215410e+05 |   0.14%| unknown
 40.5s|     1 |     0 |  6012 |     - |   126M |   0 |5225 |5700 |5702 |   2 |  1 |   0 |   0 | 7.205954e+05 | 7.215410e+05 |   0.13%| unknown
 40.7s|     1 |     0 |  6012 |     - |   126M |   0 |5225 |5700 |5544 |   2 |  1 |   0 |   0 | 7.205954e+05 | 7.215410e+05 |   0.13%| unknown
 45.2s|     1 |     0 |  6037 |     - |   127M |   0 |5225 |5542 |5546 |   4 |  2 |   0 |   0 | 7.206378e+05 | 7.215410e+05 |   0.13%| unknown
 45.3s|     1 |     0 |  6037 |     - |   127M |   0 |5225 |5542 |5359 |   4 |  2 |   0 |   0 | 7.206378e+05 | 7.215410e+05 |   0.13%| unknown
 47.2s|     1 |     0 |  6062 |     - |   127M |   0 |5225 |5355 |5363 |   8 |  3 |   0 |   0 | 7.206653e+05 | 7.215410e+05 |   0.12%| unknown
 47.3s|     1 |     0 |  6062 |     - |   127M |   0 |5225 |5355 |5245 |   8 |  3 |   0 |   0 | 7.206653e+05 | 7.215410e+05 |   0.12%| unknown
 49.1s|     1 |     0 |  6085 |     - |   128M |   0 |5225 |5237 |5251 |  14 |  4 |   0 |   0 | 7.206809e+05 | 7.215410e+05 |   0.12%| unknown
 49.2s|     1 |     0 |  6085 |     - |   128M |   0 |5225 |5237 |5204 |  14 |  4 |   0 |   0 | 7.206809e+05 | 7.215410e+05 |   0.12%| unknown
 50.3s|     1 |     0 |  6133 |     - |   129M |   0 |5225 |5190 |5210 |  20 |  5 |   0 |   0 | 7.207148e+05 | 7.215410e+05 |   0.11%| unknown
 50.4s|     1 |     0 |  6133 |     - |   129M |   0 |5225 |5190 |5061 |  20 |  5 |   0 |   0 | 7.207148e+05 | 7.215410e+05 |   0.11%| unknown
 51.7s|     1 |     0 |  6158 |     - |   129M |   0 |5225 |5041 |5065 |  24 |  6 |   0 |   0 | 7.207208e+05 | 7.215410e+05 |   0.11%| unknown
 51.8s|     1 |     0 |  6158 |     - |   129M |   0 |5225 |5041 |5038 |  24 |  6 |   0 |   0 | 7.207208e+05 | 7.215410e+05 |   0.11%| unknown
 54.4s|     1 |     0 |  6214 |     - |   130M |   0 |5225 |5014 |5041 |  27 |  7 |   0 |   0 | 7.207451e+05 | 7.215410e+05 |   0.11%| unknown
 time | node  | left  |LP iter|LP it/n|mem/heur|mdpt |vars |cons |rows |cuts |sepa|confs|strbr|  dualbound   | primalbound  |  gap   | compl. 
 54.5s|     1 |     0 |  6214 |     - |   130M |   0 |5225 |5014 |4947 |  27 |  7 |   0 |   0 | 7.207451e+05 | 7.215410e+05 |   0.11%| unknown
 55.7s|     1 |     0 |  6286 |     - |   130M |   0 |5225 |4920 |4951 |  31 |  8 |   0 |   0 | 7.207694e+05 | 7.215410e+05 |   0.11%| unknown
 55.7s|     1 |     0 |  6286 |     - |   130M |   0 |5225 |4920 |4861 |  31 |  8 |   0 |   0 | 7.207694e+05 | 7.215410e+05 |   0.11%| unknown
 59.5s|     1 |     0 |  6336 |     - |   134M |   0 |5225 |4830 |4865 |  35 |  9 |   0 |   0 | 7.208058e+05 | 7.215410e+05 |   0.10%| unknown
 59.5s|     1 |     0 |  6336 |     - |   134M |   0 |5225 |4830 |4703 |  35 |  9 |   0 |   0 | 7.208058e+05 | 7.215410e+05 |   0.10%| unknown
 60.6s|     1 |     0 |  6439 |     - |   135M |   0 |5225 |4668 |4708 |  40 | 10 |   0 |   0 | 7.208838e+05 | 7.215410e+05 |   0.09%| unknown
 60.7s|     1 |     0 |  6439 |     - |   136M |   0 |5225 |4668 |4350 |  40 | 10 |   0 |   0 | 7.208838e+05 | 7.215410e+05 |   0.09%| unknown
 60.8s|     1 |     0 |  6458 |     - |   136M |   0 |5225 |4310 |4347 |  41 | 11 |   0 |   0 | 7.208875e+05 | 7.215410e+05 |   0.09%| unknown
 60.9s|     1 |     0 |  6458 |     - |   136M |   0 |5225 |4310 |4332 |  41 | 11 |   0 |   0 | 7.208875e+05 | 7.215410e+05 |   0.09%| unknown
 61.0s|     1 |     0 |  6480 |     - |   136M |   0 |5225 |4295 |4334 |  43 | 12 |   0 |   0 | 7.208968e+05 | 7.215410e+05 |   0.09%| unknown
 61.1s|     1 |     0 |  6480 |     - |   136M |   0 |5225 |4295 |4299 |  43 | 12 |   0 |   0 | 7.208968e+05 | 7.215410e+05 |   0.09%| unknown
 61.2s|     1 |     0 |  6504 |     - |   137M |   0 |5225 |4260 |4302 |  46 | 13 |   0 |   0 | 7.209031e+05 | 7.215410e+05 |   0.09%| unknown
 61.3s|     1 |     0 |  6504 |     - |   137M |   0 |5225 |4260 |4279 |  46 | 13 |   0 |   0 | 7.209031e+05 | 7.215410e+05 |   0.09%| unknown
 61.4s|     1 |     0 |  6562 |     - |   137M |   0 |5225 |4237 |4282 |  49 | 14 |   0 |   0 | 7.209188e+05 | 7.215410e+05 |   0.09%| unknown
 61.5s|     1 |     0 |  6562 |     - |   137M |   0 |5225 |4237 |4214 |  49 | 14 |   0 |   0 | 7.209188e+05 | 7.215410e+05 |   0.09%| unknown
 time | node  | left  |LP iter|LP it/n|mem/heur|mdpt |vars |cons |rows |cuts |sepa|confs|strbr|  dualbound   | primalbound  |  gap   | compl. 
 61.6s|     1 |     0 |  6592 |     - |   138M |   0 |5225 |4169 |4217 |  52 | 15 |   0 |   0 | 7.209259e+05 | 7.215410e+05 |   0.09%| unknown
 61.7s|     1 |     0 |  6592 |     - |   138M |   0 |5225 |4169 |4187 |  52 | 15 |   0 |   0 | 7.209259e+05 | 7.215410e+05 |   0.09%| unknown
 61.8s|     1 |     0 |  6626 |     - |   138M |   0 |5225 |4139 |4190 |  55 | 16 |   0 |   0 | 7.209356e+05 | 7.215410e+05 |   0.08%| unknown
 61.9s|     1 |     0 |  6626 |     - |   138M |   0 |5225 |4139 |4154 |  55 | 16 |   0 |   0 | 7.209356e+05 | 7.215410e+05 |   0.08%| unknown
 62.0s|     1 |     0 |  6685 |     - |   139M |   0 |5225 |4103 |4153 |  57 | 17 |   0 |   0 | 7.209409e+05 | 7.215410e+05 |   0.08%| unknown
 62.1s|     1 |     0 |  6685 |     - |   139M |   0 |5225 |4103 |4132 |  57 | 17 |   0 |   0 | 7.209409e+05 | 7.215410e+05 |   0.08%| unknown
 62.2s|     1 |     0 |  6731 |     - |   139M |   0 |5225 |4082 |4135 |  60 | 18 |   0 |   0 | 7.209562e+05 | 7.215410e+05 |   0.08%| unknown
 62.3s|     1 |     0 |  6731 |     - |   139M |   0 |5225 |4082 |4059 |  60 | 18 |   0 |   0 | 7.209562e+05 | 7.215410e+05 |   0.08%| unknown
 62.4s|     1 |     0 |  6751 |     - |   139M |   0 |5225 |4006 |4060 |  61 | 19 |   0 |   0 | 7.209597e+05 | 7.215410e+05 |   0.08%| unknown
 62.5s|     1 |     0 |  6751 |     - |   140M |   0 |5225 |4006 |4048 |  61 | 19 |   0 |   0 | 7.209597e+05 | 7.215410e+05 |   0.08%| unknown
 62.6s|     1 |     0 |  6781 |     - |   140M |   0 |5225 |3994 |4050 |  63 | 20 |   0 |   0 | 7.209656e+05 | 7.215410e+05 |   0.08%| unknown
 62.7s|     1 |     0 |  6781 |     - |   140M |   0 |5225 |3994 |4026 |  63 | 20 |   0 |   0 | 7.209656e+05 | 7.215410e+05 |   0.08%| unknown
d62.8s|     1 |     0 |  7133 |     - |farkasdi|   0 |5225 |3971 |4026 |   0 | 20 |   1 |   0 | 7.209656e+05 | 7.212760e+05 |   0.04%| unknown
(run 2, node 1) restarting after 2845 global fixings of integer variables

(restart) converted 62 cuts from the global cut pool into linear constraints

presolving:
(round 1, fast)       2847 del vars, 1114 del conss, 0 add conss, 0 chg bounds, 0 chg sides, 2845 chg coeffs, 0 upgd conss, 0 impls, 2245 clqs
(round 2, fast)       2848 del vars, 1244 del conss, 0 add conss, 0 chg bounds, 0 chg sides, 2845 chg coeffs, 0 upgd conss, 0 impls, 2245 clqs
   (63.2s) running MILP presolver
   (63.2s) MILP presolver found nothing
(round 3, exhaustive) 2848 del vars, 1244 del conss, 0 add conss, 0 chg bounds, 0 chg sides, 2845 chg coeffs, 62 upgd conss, 0 impls, 2245 clqs
(round 4, exhaustive) 3133 del vars, 1244 del conss, 0 add conss, 0 chg bounds, 0 chg sides, 2845 chg coeffs, 62 upgd conss, 0 impls, 1960 clqs
(round 5, fast)       3161 del vars, 1557 del conss, 0 add conss, 0 chg bounds, 0 chg sides, 3126 chg coeffs, 62 upgd conss, 0 impls, 1978 clqs
presolving (6 rounds: 6 fast, 3 medium, 3 exhaustive):
 3161 deleted vars, 1557 deleted constraints, 0 added constraints, 0 tightened bounds, 0 added holes, 0 changed sides, 3126 changed coefficients
 0 implications, 1978 cliques
presolved problem has 2065 variables (2065 bin, 0 int, 0 impl, 0 cont) and 2476 constraints
    111 constraints of type <knapsack>
   1947 constraints of type <setppc>
    418 constraints of type <logicor>
transformed objective value is always integral (scale: 1)
Presolving Time: 1.00
transformed 8/11 original solutions to the transformed problem space

 time | node  | left  |LP iter|LP it/n|mem/heur|mdpt |vars |cons |rows |cuts |sepa|confs|strbr|  dualbound   | primalbound  |  gap   | compl. 
 64.5s|     1 |     0 | 14157 |     - |   143M |   0 |2065 |2476 |2475 |   0 |  0 |1114 |   0 | 7.209656e+05 | 7.212760e+05 |   0.04%| unknown
 64.6s|     1 |     0 | 14157 |     - |   143M |   0 |2065 |2476 |2464 |   0 |  0 |1114 |   0 | 7.209656e+05 | 7.212760e+05 |   0.04%| unknown
 65.9s|     1 |     0 | 14178 |     - |   145M |   0 |2065 |2463 |2373 |   2 |  1 |1114 |   0 | 7.209733e+05 | 7.212760e+05 |   0.04%| unknown
 66.0s|     1 |     0 | 14178 |     - |   145M |   0 |2065 |2463 |2356 |   2 |  1 |1114 |   0 | 7.209733e+05 | 7.212760e+05 |   0.04%| unknown
 67.3s|     1 |     0 | 14226 |     - |   147M |   0 |2065 |2353 |2358 |   4 |  2 |1114 |   0 | 7.209767e+05 | 7.212760e+05 |   0.04%| unknown
 67.3s|     1 |     0 | 14226 |     - |   147M |   0 |2065 |2353 |2350 |   4 |  2 |1114 |   0 | 7.209767e+05 | 7.212760e+05 |   0.04%| unknown
 68.8s|     1 |     0 | 14267 |     - |   148M |   0 |2065 |2345 |2352 |   6 |  3 |1114 |   0 | 7.209811e+05 | 7.212760e+05 |   0.04%| unknown
 68.9s|     1 |     0 | 14267 |     - |   148M |   0 |2065 |2345 |2346 |   6 |  3 |1114 |   0 | 7.209811e+05 | 7.212760e+05 |   0.04%| unknown
 70.0s|     1 |     0 | 14281 |     - |   149M |   0 |2065 |2339 |2347 |   7 |  4 |1114 |   0 | 7.209816e+05 | 7.212760e+05 |   0.04%| unknown
 71.4s|     1 |     0 | 14325 |     - |   152M |   0 |2065 |2339 |2349 |   9 |  5 |1114 |   0 | 7.209864e+05 | 7.212760e+05 |   0.04%| unknown
 71.5s|     1 |     0 | 14325 |     - |   152M |   0 |2065 |2339 |2345 |   9 |  5 |1114 |   0 | 7.209864e+05 | 7.212760e+05 |   0.04%| unknown
 72.2s|     1 |     0 | 14425 |     - |   152M |   0 |2065 |2335 |2347 |  11 |  6 |1114 |   0 | 7.209997e+05 | 7.212760e+05 |   0.04%| unknown
 72.3s|     1 |     0 | 14425 |     - |   152M |   0 |2065 |2335 |2311 |  11 |  6 |1114 |   0 | 7.209997e+05 | 7.212760e+05 |   0.04%| unknown
 73.3s|     1 |     0 | 14486 |     - |   154M |   0 |2065 |2299 |2312 |  12 |  7 |1114 |   0 | 7.210073e+05 | 7.212760e+05 |   0.04%| unknown
 73.4s|     1 |     0 | 14486 |     - |   154M |   0 |2065 |2299 |2290 |  12 |  7 |1114 |   0 | 7.210073e+05 | 7.212760e+05 |   0.04%| unknown
 time | node  | left  |LP iter|LP it/n|mem/heur|mdpt |vars |cons |rows |cuts |sepa|confs|strbr|  dualbound   | primalbound  |  gap   | compl. 
 74.6s|     1 |     0 | 14539 |     - |   156M |   0 |2065 |2277 |2292 |  14 |  8 |1114 |   0 | 7.210153e+05 | 7.212760e+05 |   0.04%| unknown
 74.6s|     1 |     0 | 14539 |     - |   156M |   0 |2065 |2277 |2272 |  14 |  8 |1114 |   0 | 7.210153e+05 | 7.212760e+05 |   0.04%| unknown
 75.9s|     1 |     0 | 14567 |     - |   158M |   0 |2065 |2257 |2274 |  16 |  9 |1114 |   0 | 7.210192e+05 | 7.212760e+05 |   0.04%| unknown
 76.0s|     1 |     0 | 14567 |     - |   158M |   0 |2065 |2257 |2265 |  16 |  9 |1114 |   0 | 7.210192e+05 | 7.212760e+05 |   0.04%| unknown
 77.1s|     1 |     0 | 14631 |     - |   159M |   0 |2065 |2248 |2267 |  18 | 10 |1114 |   0 | 7.210247e+05 | 7.212760e+05 |   0.03%| unknown
 77.1s|     1 |     0 | 14631 |     - |   159M |   0 |2065 |2248 |2259 |  18 | 10 |1114 |   0 | 7.210247e+05 | 7.212760e+05 |   0.03%| unknown
 77.2s|     1 |     0 | 14678 |     - |   160M |   0 |2065 |2240 |2262 |  21 | 11 |1114 |   0 | 7.210311e+05 | 7.212760e+05 |   0.03%| unknown
 77.3s|     1 |     0 | 14678 |     - |   160M |   0 |2065 |2240 |2252 |  21 | 11 |1114 |   0 | 7.210311e+05 | 7.212760e+05 |   0.03%| unknown
 77.4s|     1 |     0 | 15134 |     - |   160M |   0 |2065 |2211 |2252 |  21 | 11 |1117 |   0 | 7.212760e+05 | 7.212760e+05 |   0.00%| unknown

SCIP Status        : problem is solved [optimal solution found]
Solving Time (sec) : 77.41
Solving Nodes      : 1 (total of 3 nodes in 3 runs)
Primal Bound       : +7.21276000000000e+05 (12 solutions)
Dual Bound         : +7.21276000000000e+05
Gap                : 0.00 %
Solve Status: optimal
Solve Time: 77.42 seconds
Objective Value: 721276.00
